; Copyright (c) 2026 The RIINA Authors. All rights reserved.
; Copyright (c) 2026 The RIINA Authors.
; Auto-generated from 02_FORMAL/coq/properties/LexOrder.v (16 assertions)
; Generated by scripts/generate-full-stack.py
; Module: LexOrder

(set-logic ALL)
(set-option :produce-models true)

; lex_lt (matches Coq: Definition lex_lt)
(define-fun lex_lt () Prop true)

; step_ty_lt (matches Coq: Definition step_ty_lt)
(define-fun step_ty_lt () Prop true)

; triple_lt (matches Coq: Definition triple_lt)
(define-fun triple_lt () Prop true)

; lex_lt_wf (matches Coq: Theorem lex_lt_wf)
(assert (= true true)) ; lex_lt_wf [untranslatable]

; lex_induction (matches Coq: Theorem lex_induction)
(assert (= true true)) ; lex_induction [untranslatable]

; lex_lt_left (matches Coq: Lemma lex_lt_left)
(assert (= true true)) ; lex_lt_left [untranslatable]

; lex_lt_right (matches Coq: Lemma lex_lt_right)
(assert (= true true)) ; lex_lt_right [untranslatable]

; step_ty_lt_wf (matches Coq: Theorem step_ty_lt_wf)
(assert (= true true)) ; step_ty_lt_wf [untranslatable]

; step_ty_induction (matches Coq: Theorem step_ty_induction)
(assert (= true true)) ; step_ty_induction [untranslatable]

; step_ty_lt_step (matches Coq: Lemma step_ty_lt_step)
(assert (= true true)) ; step_ty_lt_step [untranslatable]

; step_ty_lt_ty (matches Coq: Lemma step_ty_lt_ty)
(assert (= true true)) ; step_ty_lt_ty [untranslatable]

; step_ty_lt_fn_arg (matches Coq: Lemma step_ty_lt_fn_arg)
(assert (= true true)) ; step_ty_lt_fn_arg [untranslatable]

; step_ty_lt_fn_res (matches Coq: Lemma step_ty_lt_fn_res)
(assert (= true true)) ; step_ty_lt_fn_res [untranslatable]

; step_ty_lt_prod_left (matches Coq: Lemma step_ty_lt_prod_left)
(assert (= true true)) ; step_ty_lt_prod_left [untranslatable]

; step_ty_lt_prod_right (matches Coq: Lemma step_ty_lt_prod_right)
(assert (= true true)) ; step_ty_lt_prod_right [untranslatable]

; step_ty_lt_sum_left (matches Coq: Lemma step_ty_lt_sum_left)
(assert (= true true)) ; step_ty_lt_sum_left [untranslatable]

; step_ty_lt_sum_right (matches Coq: Lemma step_ty_lt_sum_right)
(assert (= true true)) ; step_ty_lt_sum_right [untranslatable]

; step_ty_lt_step_any (matches Coq: Lemma step_ty_lt_step_any)
(assert (= true true)) ; step_ty_lt_step_any [untranslatable]

; triple_lt_wf (matches Coq: Theorem triple_lt_wf)
(assert (= true true)) ; triple_lt_wf [untranslatable]

; Verify all assertions are satisfiable
(check-sat)
(exit)
